(set-logic QF_LRA)
(declare-fun X0 () Real )
(declare-fun Y0 () Real )
(declare-fun X1 () Real )
(declare-fun Y1 () Real )
(declare-fun X2 () Real )
(declare-fun Y2 () Real )
(declare-fun X3 () Real )
(declare-fun Y3 () Real )
(declare-fun X4 () Real )
(declare-fun Y4 () Real )
(declare-fun X5 () Real )
(declare-fun Y5 () Real )
(declare-fun X6 () Real )
(declare-fun Y6 () Real )
(declare-fun X7 () Real )
(declare-fun Y7 () Real )
(declare-fun X8 () Real )
(declare-fun Y8 () Real )
(declare-fun X9 () Real )
(declare-fun Y9 () Real )
(declare-fun X10 () Real )
(declare-fun Y10 () Real )
(declare-fun X11 () Real )
(declare-fun Y11 () Real )
(declare-fun X12 () Real )
(declare-fun Y12 () Real )
(declare-fun X13 () Real )
(declare-fun Y13 () Real )
(declare-fun X14 () Real )
(declare-fun Y14 () Real )
(declare-fun X15 () Real )
(declare-fun Y15 () Real )
(declare-fun X16 () Real )
(declare-fun Y16 () Real )
(declare-fun X17 () Real )
(declare-fun Y17 () Real )
(declare-fun Z () Real )
(assert ( and  
( or ( <= ( + X0 87 ) X1 )  ( <= ( + X1 82 ) X0 )  ( <= ( + Y0 61 ) Y1 )  ( <= ( + Y1 35 ) Y0 )  )
( or ( <= ( + X0 87 ) X2 )  ( <= ( + X2 43 ) X0 )  ( <= ( + Y0 61 ) Y2 )  ( <= ( + Y2 14 ) Y0 )  )
( or ( <= ( + X0 87 ) X3 )  ( <= ( + X3 23 ) X0 )  ( <= ( + Y0 61 ) Y3 )  ( <= ( + Y3 99 ) Y0 )  )
( or ( <= ( + X0 87 ) X4 )  ( <= ( + X4 71 ) X0 )  ( <= ( + Y0 61 ) Y4 )  ( <= ( + Y4 77 ) Y0 )  )
( or ( <= ( + X0 87 ) X5 )  ( <= ( + X5 29 ) X0 )  ( <= ( + Y0 61 ) Y5 )  ( <= ( + Y5 14 ) Y0 )  )
( or ( <= ( + X0 87 ) X6 )  ( <= ( + X6 20 ) X0 )  ( <= ( + Y0 61 ) Y6 )  ( <= ( + Y6 4 ) Y0 )  )
( or ( <= ( + X0 87 ) X7 )  ( <= ( + X7 77 ) X0 )  ( <= ( + Y0 61 ) Y7 )  ( <= ( + Y7 1 ) Y0 )  )
( or ( <= ( + X0 87 ) X8 )  ( <= ( + X8 44 ) X0 )  ( <= ( + Y0 61 ) Y8 )  ( <= ( + Y8 78 ) Y0 )  )
( or ( <= ( + X0 87 ) X9 )  ( <= ( + X9 15 ) X0 )  ( <= ( + Y0 61 ) Y9 )  ( <= ( + Y9 12 ) Y0 )  )
( or ( <= ( + X0 87 ) X10 )  ( <= ( + X10 1 ) X0 )  ( <= ( + Y0 61 ) Y10 )  ( <= ( + Y10 44 ) Y0 )  )
( or ( <= ( + X0 87 ) X11 )  ( <= ( + X11 16 ) X0 )  ( <= ( + Y0 61 ) Y11 )  ( <= ( + Y11 32 ) Y0 )  )
( or ( <= ( + X0 87 ) X12 )  ( <= ( + X12 54 ) X0 )  ( <= ( + Y0 61 ) Y12 )  ( <= ( + Y12 1 ) Y0 )  )
( or ( <= ( + X0 87 ) X13 )  ( <= ( + X13 84 ) X0 )  ( <= ( + Y0 61 ) Y13 )  ( <= ( + Y13 30 ) Y0 )  )
( or ( <= ( + X0 87 ) X14 )  ( <= ( + X14 94 ) X0 )  ( <= ( + Y0 61 ) Y14 )  ( <= ( + Y14 13 ) Y0 )  )
( or ( <= ( + X0 87 ) X15 )  ( <= ( + X15 27 ) X0 )  ( <= ( + Y0 61 ) Y15 )  ( <= ( + Y15 96 ) Y0 )  )
( or ( <= ( + X0 87 ) X16 )  ( <= ( + X16 75 ) X0 )  ( <= ( + Y0 61 ) Y16 )  ( <= ( + Y16 5 ) Y0 )  )
( or ( <= ( + X0 87 ) X17 )  ( <= ( + X17 53 ) X0 )  ( <= ( + Y0 61 ) Y17 )  ( <= ( + Y17 36 ) Y0 )  )
( or ( <= ( + X1 82 ) X2 )  ( <= ( + X2 43 ) X1 )  ( <= ( + Y1 35 ) Y2 )  ( <= ( + Y2 14 ) Y1 )  )
( or ( <= ( + X1 82 ) X3 )  ( <= ( + X3 23 ) X1 )  ( <= ( + Y1 35 ) Y3 )  ( <= ( + Y3 99 ) Y1 )  )
( or ( <= ( + X1 82 ) X4 )  ( <= ( + X4 71 ) X1 )  ( <= ( + Y1 35 ) Y4 )  ( <= ( + Y4 77 ) Y1 )  )
( or ( <= ( + X1 82 ) X5 )  ( <= ( + X5 29 ) X1 )  ( <= ( + Y1 35 ) Y5 )  ( <= ( + Y5 14 ) Y1 )  )
( or ( <= ( + X1 82 ) X6 )  ( <= ( + X6 20 ) X1 )  ( <= ( + Y1 35 ) Y6 )  ( <= ( + Y6 4 ) Y1 )  )
( or ( <= ( + X1 82 ) X7 )  ( <= ( + X7 77 ) X1 )  ( <= ( + Y1 35 ) Y7 )  ( <= ( + Y7 1 ) Y1 )  )
( or ( <= ( + X1 82 ) X8 )  ( <= ( + X8 44 ) X1 )  ( <= ( + Y1 35 ) Y8 )  ( <= ( + Y8 78 ) Y1 )  )
( or ( <= ( + X1 82 ) X9 )  ( <= ( + X9 15 ) X1 )  ( <= ( + Y1 35 ) Y9 )  ( <= ( + Y9 12 ) Y1 )  )
( or ( <= ( + X1 82 ) X10 )  ( <= ( + X10 1 ) X1 )  ( <= ( + Y1 35 ) Y10 )  ( <= ( + Y10 44 ) Y1 )  )
( or ( <= ( + X1 82 ) X11 )  ( <= ( + X11 16 ) X1 )  ( <= ( + Y1 35 ) Y11 )  ( <= ( + Y11 32 ) Y1 )  )
( or ( <= ( + X1 82 ) X12 )  ( <= ( + X12 54 ) X1 )  ( <= ( + Y1 35 ) Y12 )  ( <= ( + Y12 1 ) Y1 )  )
( or ( <= ( + X1 82 ) X13 )  ( <= ( + X13 84 ) X1 )  ( <= ( + Y1 35 ) Y13 )  ( <= ( + Y13 30 ) Y1 )  )
( or ( <= ( + X1 82 ) X14 )  ( <= ( + X14 94 ) X1 )  ( <= ( + Y1 35 ) Y14 )  ( <= ( + Y14 13 ) Y1 )  )
( or ( <= ( + X1 82 ) X15 )  ( <= ( + X15 27 ) X1 )  ( <= ( + Y1 35 ) Y15 )  ( <= ( + Y15 96 ) Y1 )  )
( or ( <= ( + X1 82 ) X16 )  ( <= ( + X16 75 ) X1 )  ( <= ( + Y1 35 ) Y16 )  ( <= ( + Y16 5 ) Y1 )  )
( or ( <= ( + X1 82 ) X17 )  ( <= ( + X17 53 ) X1 )  ( <= ( + Y1 35 ) Y17 )  ( <= ( + Y17 36 ) Y1 )  )
( or ( <= ( + X2 43 ) X3 )  ( <= ( + X3 23 ) X2 )  ( <= ( + Y2 14 ) Y3 )  ( <= ( + Y3 99 ) Y2 )  )
( or ( <= ( + X2 43 ) X4 )  ( <= ( + X4 71 ) X2 )  ( <= ( + Y2 14 ) Y4 )  ( <= ( + Y4 77 ) Y2 )  )
( or ( <= ( + X2 43 ) X5 )  ( <= ( + X5 29 ) X2 )  ( <= ( + Y2 14 ) Y5 )  ( <= ( + Y5 14 ) Y2 )  )
( or ( <= ( + X2 43 ) X6 )  ( <= ( + X6 20 ) X2 )  ( <= ( + Y2 14 ) Y6 )  ( <= ( + Y6 4 ) Y2 )  )
( or ( <= ( + X2 43 ) X7 )  ( <= ( + X7 77 ) X2 )  ( <= ( + Y2 14 ) Y7 )  ( <= ( + Y7 1 ) Y2 )  )
( or ( <= ( + X2 43 ) X8 )  ( <= ( + X8 44 ) X2 )  ( <= ( + Y2 14 ) Y8 )  ( <= ( + Y8 78 ) Y2 )  )
( or ( <= ( + X2 43 ) X9 )  ( <= ( + X9 15 ) X2 )  ( <= ( + Y2 14 ) Y9 )  ( <= ( + Y9 12 ) Y2 )  )
( or ( <= ( + X2 43 ) X10 )  ( <= ( + X10 1 ) X2 )  ( <= ( + Y2 14 ) Y10 )  ( <= ( + Y10 44 ) Y2 )  )
( or ( <= ( + X2 43 ) X11 )  ( <= ( + X11 16 ) X2 )  ( <= ( + Y2 14 ) Y11 )  ( <= ( + Y11 32 ) Y2 )  )
( or ( <= ( + X2 43 ) X12 )  ( <= ( + X12 54 ) X2 )  ( <= ( + Y2 14 ) Y12 )  ( <= ( + Y12 1 ) Y2 )  )
( or ( <= ( + X2 43 ) X13 )  ( <= ( + X13 84 ) X2 )  ( <= ( + Y2 14 ) Y13 )  ( <= ( + Y13 30 ) Y2 )  )
( or ( <= ( + X2 43 ) X14 )  ( <= ( + X14 94 ) X2 )  ( <= ( + Y2 14 ) Y14 )  ( <= ( + Y14 13 ) Y2 )  )
( or ( <= ( + X2 43 ) X15 )  ( <= ( + X15 27 ) X2 )  ( <= ( + Y2 14 ) Y15 )  ( <= ( + Y15 96 ) Y2 )  )
( or ( <= ( + X2 43 ) X16 )  ( <= ( + X16 75 ) X2 )  ( <= ( + Y2 14 ) Y16 )  ( <= ( + Y16 5 ) Y2 )  )
( or ( <= ( + X2 43 ) X17 )  ( <= ( + X17 53 ) X2 )  ( <= ( + Y2 14 ) Y17 )  ( <= ( + Y17 36 ) Y2 )  )
( or ( <= ( + X3 23 ) X4 )  ( <= ( + X4 71 ) X3 )  ( <= ( + Y3 99 ) Y4 )  ( <= ( + Y4 77 ) Y3 )  )
( or ( <= ( + X3 23 ) X5 )  ( <= ( + X5 29 ) X3 )  ( <= ( + Y3 99 ) Y5 )  ( <= ( + Y5 14 ) Y3 )  )
( or ( <= ( + X3 23 ) X6 )  ( <= ( + X6 20 ) X3 )  ( <= ( + Y3 99 ) Y6 )  ( <= ( + Y6 4 ) Y3 )  )
( or ( <= ( + X3 23 ) X7 )  ( <= ( + X7 77 ) X3 )  ( <= ( + Y3 99 ) Y7 )  ( <= ( + Y7 1 ) Y3 )  )
( or ( <= ( + X3 23 ) X8 )  ( <= ( + X8 44 ) X3 )  ( <= ( + Y3 99 ) Y8 )  ( <= ( + Y8 78 ) Y3 )  )
( or ( <= ( + X3 23 ) X9 )  ( <= ( + X9 15 ) X3 )  ( <= ( + Y3 99 ) Y9 )  ( <= ( + Y9 12 ) Y3 )  )
( or ( <= ( + X3 23 ) X10 )  ( <= ( + X10 1 ) X3 )  ( <= ( + Y3 99 ) Y10 )  ( <= ( + Y10 44 ) Y3 )  )
( or ( <= ( + X3 23 ) X11 )  ( <= ( + X11 16 ) X3 )  ( <= ( + Y3 99 ) Y11 )  ( <= ( + Y11 32 ) Y3 )  )
( or ( <= ( + X3 23 ) X12 )  ( <= ( + X12 54 ) X3 )  ( <= ( + Y3 99 ) Y12 )  ( <= ( + Y12 1 ) Y3 )  )
( or ( <= ( + X3 23 ) X13 )  ( <= ( + X13 84 ) X3 )  ( <= ( + Y3 99 ) Y13 )  ( <= ( + Y13 30 ) Y3 )  )
( or ( <= ( + X3 23 ) X14 )  ( <= ( + X14 94 ) X3 )  ( <= ( + Y3 99 ) Y14 )  ( <= ( + Y14 13 ) Y3 )  )
( or ( <= ( + X3 23 ) X15 )  ( <= ( + X15 27 ) X3 )  ( <= ( + Y3 99 ) Y15 )  ( <= ( + Y15 96 ) Y3 )  )
( or ( <= ( + X3 23 ) X16 )  ( <= ( + X16 75 ) X3 )  ( <= ( + Y3 99 ) Y16 )  ( <= ( + Y16 5 ) Y3 )  )
( or ( <= ( + X3 23 ) X17 )  ( <= ( + X17 53 ) X3 )  ( <= ( + Y3 99 ) Y17 )  ( <= ( + Y17 36 ) Y3 )  )
( or ( <= ( + X4 71 ) X5 )  ( <= ( + X5 29 ) X4 )  ( <= ( + Y4 77 ) Y5 )  ( <= ( + Y5 14 ) Y4 )  )
( or ( <= ( + X4 71 ) X6 )  ( <= ( + X6 20 ) X4 )  ( <= ( + Y4 77 ) Y6 )  ( <= ( + Y6 4 ) Y4 )  )
( or ( <= ( + X4 71 ) X7 )  ( <= ( + X7 77 ) X4 )  ( <= ( + Y4 77 ) Y7 )  ( <= ( + Y7 1 ) Y4 )  )
( or ( <= ( + X4 71 ) X8 )  ( <= ( + X8 44 ) X4 )  ( <= ( + Y4 77 ) Y8 )  ( <= ( + Y8 78 ) Y4 )  )
( or ( <= ( + X4 71 ) X9 )  ( <= ( + X9 15 ) X4 )  ( <= ( + Y4 77 ) Y9 )  ( <= ( + Y9 12 ) Y4 )  )
( or ( <= ( + X4 71 ) X10 )  ( <= ( + X10 1 ) X4 )  ( <= ( + Y4 77 ) Y10 )  ( <= ( + Y10 44 ) Y4 )  )
( or ( <= ( + X4 71 ) X11 )  ( <= ( + X11 16 ) X4 )  ( <= ( + Y4 77 ) Y11 )  ( <= ( + Y11 32 ) Y4 )  )
( or ( <= ( + X4 71 ) X12 )  ( <= ( + X12 54 ) X4 )  ( <= ( + Y4 77 ) Y12 )  ( <= ( + Y12 1 ) Y4 )  )
( or ( <= ( + X4 71 ) X13 )  ( <= ( + X13 84 ) X4 )  ( <= ( + Y4 77 ) Y13 )  ( <= ( + Y13 30 ) Y4 )  )
( or ( <= ( + X4 71 ) X14 )  ( <= ( + X14 94 ) X4 )  ( <= ( + Y4 77 ) Y14 )  ( <= ( + Y14 13 ) Y4 )  )
( or ( <= ( + X4 71 ) X15 )  ( <= ( + X15 27 ) X4 )  ( <= ( + Y4 77 ) Y15 )  ( <= ( + Y15 96 ) Y4 )  )
( or ( <= ( + X4 71 ) X16 )  ( <= ( + X16 75 ) X4 )  ( <= ( + Y4 77 ) Y16 )  ( <= ( + Y16 5 ) Y4 )  )
( or ( <= ( + X4 71 ) X17 )  ( <= ( + X17 53 ) X4 )  ( <= ( + Y4 77 ) Y17 )  ( <= ( + Y17 36 ) Y4 )  )
( or ( <= ( + X5 29 ) X6 )  ( <= ( + X6 20 ) X5 )  ( <= ( + Y5 14 ) Y6 )  ( <= ( + Y6 4 ) Y5 )  )
( or ( <= ( + X5 29 ) X7 )  ( <= ( + X7 77 ) X5 )  ( <= ( + Y5 14 ) Y7 )  ( <= ( + Y7 1 ) Y5 )  )
( or ( <= ( + X5 29 ) X8 )  ( <= ( + X8 44 ) X5 )  ( <= ( + Y5 14 ) Y8 )  ( <= ( + Y8 78 ) Y5 )  )
( or ( <= ( + X5 29 ) X9 )  ( <= ( + X9 15 ) X5 )  ( <= ( + Y5 14 ) Y9 )  ( <= ( + Y9 12 ) Y5 )  )
( or ( <= ( + X5 29 ) X10 )  ( <= ( + X10 1 ) X5 )  ( <= ( + Y5 14 ) Y10 )  ( <= ( + Y10 44 ) Y5 )  )
( or ( <= ( + X5 29 ) X11 )  ( <= ( + X11 16 ) X5 )  ( <= ( + Y5 14 ) Y11 )  ( <= ( + Y11 32 ) Y5 )  )
( or ( <= ( + X5 29 ) X12 )  ( <= ( + X12 54 ) X5 )  ( <= ( + Y5 14 ) Y12 )  ( <= ( + Y12 1 ) Y5 )  )
( or ( <= ( + X5 29 ) X13 )  ( <= ( + X13 84 ) X5 )  ( <= ( + Y5 14 ) Y13 )  ( <= ( + Y13 30 ) Y5 )  )
( or ( <= ( + X5 29 ) X14 )  ( <= ( + X14 94 ) X5 )  ( <= ( + Y5 14 ) Y14 )  ( <= ( + Y14 13 ) Y5 )  )
( or ( <= ( + X5 29 ) X15 )  ( <= ( + X15 27 ) X5 )  ( <= ( + Y5 14 ) Y15 )  ( <= ( + Y15 96 ) Y5 )  )
( or ( <= ( + X5 29 ) X16 )  ( <= ( + X16 75 ) X5 )  ( <= ( + Y5 14 ) Y16 )  ( <= ( + Y16 5 ) Y5 )  )
( or ( <= ( + X5 29 ) X17 )  ( <= ( + X17 53 ) X5 )  ( <= ( + Y5 14 ) Y17 )  ( <= ( + Y17 36 ) Y5 )  )
( or ( <= ( + X6 20 ) X7 )  ( <= ( + X7 77 ) X6 )  ( <= ( + Y6 4 ) Y7 )  ( <= ( + Y7 1 ) Y6 )  )
( or ( <= ( + X6 20 ) X8 )  ( <= ( + X8 44 ) X6 )  ( <= ( + Y6 4 ) Y8 )  ( <= ( + Y8 78 ) Y6 )  )
( or ( <= ( + X6 20 ) X9 )  ( <= ( + X9 15 ) X6 )  ( <= ( + Y6 4 ) Y9 )  ( <= ( + Y9 12 ) Y6 )  )
( or ( <= ( + X6 20 ) X10 )  ( <= ( + X10 1 ) X6 )  ( <= ( + Y6 4 ) Y10 )  ( <= ( + Y10 44 ) Y6 )  )
( or ( <= ( + X6 20 ) X11 )  ( <= ( + X11 16 ) X6 )  ( <= ( + Y6 4 ) Y11 )  ( <= ( + Y11 32 ) Y6 )  )
( or ( <= ( + X6 20 ) X12 )  ( <= ( + X12 54 ) X6 )  ( <= ( + Y6 4 ) Y12 )  ( <= ( + Y12 1 ) Y6 )  )
( or ( <= ( + X6 20 ) X13 )  ( <= ( + X13 84 ) X6 )  ( <= ( + Y6 4 ) Y13 )  ( <= ( + Y13 30 ) Y6 )  )
( or ( <= ( + X6 20 ) X14 )  ( <= ( + X14 94 ) X6 )  ( <= ( + Y6 4 ) Y14 )  ( <= ( + Y14 13 ) Y6 )  )
( or ( <= ( + X6 20 ) X15 )  ( <= ( + X15 27 ) X6 )  ( <= ( + Y6 4 ) Y15 )  ( <= ( + Y15 96 ) Y6 )  )
( or ( <= ( + X6 20 ) X16 )  ( <= ( + X16 75 ) X6 )  ( <= ( + Y6 4 ) Y16 )  ( <= ( + Y16 5 ) Y6 )  )
( or ( <= ( + X6 20 ) X17 )  ( <= ( + X17 53 ) X6 )  ( <= ( + Y6 4 ) Y17 )  ( <= ( + Y17 36 ) Y6 )  )
( or ( <= ( + X7 77 ) X8 )  ( <= ( + X8 44 ) X7 )  ( <= ( + Y7 1 ) Y8 )  ( <= ( + Y8 78 ) Y7 )  )
( or ( <= ( + X7 77 ) X9 )  ( <= ( + X9 15 ) X7 )  ( <= ( + Y7 1 ) Y9 )  ( <= ( + Y9 12 ) Y7 )  )
( or ( <= ( + X7 77 ) X10 )  ( <= ( + X10 1 ) X7 )  ( <= ( + Y7 1 ) Y10 )  ( <= ( + Y10 44 ) Y7 )  )
( or ( <= ( + X7 77 ) X11 )  ( <= ( + X11 16 ) X7 )  ( <= ( + Y7 1 ) Y11 )  ( <= ( + Y11 32 ) Y7 )  )
( or ( <= ( + X7 77 ) X12 )  ( <= ( + X12 54 ) X7 )  ( <= ( + Y7 1 ) Y12 )  ( <= ( + Y12 1 ) Y7 )  )
( or ( <= ( + X7 77 ) X13 )  ( <= ( + X13 84 ) X7 )  ( <= ( + Y7 1 ) Y13 )  ( <= ( + Y13 30 ) Y7 )  )
( or ( <= ( + X7 77 ) X14 )  ( <= ( + X14 94 ) X7 )  ( <= ( + Y7 1 ) Y14 )  ( <= ( + Y14 13 ) Y7 )  )
( or ( <= ( + X7 77 ) X15 )  ( <= ( + X15 27 ) X7 )  ( <= ( + Y7 1 ) Y15 )  ( <= ( + Y15 96 ) Y7 )  )
( or ( <= ( + X7 77 ) X16 )  ( <= ( + X16 75 ) X7 )  ( <= ( + Y7 1 ) Y16 )  ( <= ( + Y16 5 ) Y7 )  )
( or ( <= ( + X7 77 ) X17 )  ( <= ( + X17 53 ) X7 )  ( <= ( + Y7 1 ) Y17 )  ( <= ( + Y17 36 ) Y7 )  )
( or ( <= ( + X8 44 ) X9 )  ( <= ( + X9 15 ) X8 )  ( <= ( + Y8 78 ) Y9 )  ( <= ( + Y9 12 ) Y8 )  )
( or ( <= ( + X8 44 ) X10 )  ( <= ( + X10 1 ) X8 )  ( <= ( + Y8 78 ) Y10 )  ( <= ( + Y10 44 ) Y8 )  )
( or ( <= ( + X8 44 ) X11 )  ( <= ( + X11 16 ) X8 )  ( <= ( + Y8 78 ) Y11 )  ( <= ( + Y11 32 ) Y8 )  )
( or ( <= ( + X8 44 ) X12 )  ( <= ( + X12 54 ) X8 )  ( <= ( + Y8 78 ) Y12 )  ( <= ( + Y12 1 ) Y8 )  )
( or ( <= ( + X8 44 ) X13 )  ( <= ( + X13 84 ) X8 )  ( <= ( + Y8 78 ) Y13 )  ( <= ( + Y13 30 ) Y8 )  )
( or ( <= ( + X8 44 ) X14 )  ( <= ( + X14 94 ) X8 )  ( <= ( + Y8 78 ) Y14 )  ( <= ( + Y14 13 ) Y8 )  )
( or ( <= ( + X8 44 ) X15 )  ( <= ( + X15 27 ) X8 )  ( <= ( + Y8 78 ) Y15 )  ( <= ( + Y15 96 ) Y8 )  )
( or ( <= ( + X8 44 ) X16 )  ( <= ( + X16 75 ) X8 )  ( <= ( + Y8 78 ) Y16 )  ( <= ( + Y16 5 ) Y8 )  )
( or ( <= ( + X8 44 ) X17 )  ( <= ( + X17 53 ) X8 )  ( <= ( + Y8 78 ) Y17 )  ( <= ( + Y17 36 ) Y8 )  )
( or ( <= ( + X9 15 ) X10 )  ( <= ( + X10 1 ) X9 )  ( <= ( + Y9 12 ) Y10 )  ( <= ( + Y10 44 ) Y9 )  )
( or ( <= ( + X9 15 ) X11 )  ( <= ( + X11 16 ) X9 )  ( <= ( + Y9 12 ) Y11 )  ( <= ( + Y11 32 ) Y9 )  )
( or ( <= ( + X9 15 ) X12 )  ( <= ( + X12 54 ) X9 )  ( <= ( + Y9 12 ) Y12 )  ( <= ( + Y12 1 ) Y9 )  )
( or ( <= ( + X9 15 ) X13 )  ( <= ( + X13 84 ) X9 )  ( <= ( + Y9 12 ) Y13 )  ( <= ( + Y13 30 ) Y9 )  )
( or ( <= ( + X9 15 ) X14 )  ( <= ( + X14 94 ) X9 )  ( <= ( + Y9 12 ) Y14 )  ( <= ( + Y14 13 ) Y9 )  )
( or ( <= ( + X9 15 ) X15 )  ( <= ( + X15 27 ) X9 )  ( <= ( + Y9 12 ) Y15 )  ( <= ( + Y15 96 ) Y9 )  )
( or ( <= ( + X9 15 ) X16 )  ( <= ( + X16 75 ) X9 )  ( <= ( + Y9 12 ) Y16 )  ( <= ( + Y16 5 ) Y9 )  )
( or ( <= ( + X9 15 ) X17 )  ( <= ( + X17 53 ) X9 )  ( <= ( + Y9 12 ) Y17 )  ( <= ( + Y17 36 ) Y9 )  )
( or ( <= ( + X10 1 ) X11 )  ( <= ( + X11 16 ) X10 )  ( <= ( + Y10 44 ) Y11 )  ( <= ( + Y11 32 ) Y10 )  )
( or ( <= ( + X10 1 ) X12 )  ( <= ( + X12 54 ) X10 )  ( <= ( + Y10 44 ) Y12 )  ( <= ( + Y12 1 ) Y10 )  )
( or ( <= ( + X10 1 ) X13 )  ( <= ( + X13 84 ) X10 )  ( <= ( + Y10 44 ) Y13 )  ( <= ( + Y13 30 ) Y10 )  )
( or ( <= ( + X10 1 ) X14 )  ( <= ( + X14 94 ) X10 )  ( <= ( + Y10 44 ) Y14 )  ( <= ( + Y14 13 ) Y10 )  )
( or ( <= ( + X10 1 ) X15 )  ( <= ( + X15 27 ) X10 )  ( <= ( + Y10 44 ) Y15 )  ( <= ( + Y15 96 ) Y10 )  )
( or ( <= ( + X10 1 ) X16 )  ( <= ( + X16 75 ) X10 )  ( <= ( + Y10 44 ) Y16 )  ( <= ( + Y16 5 ) Y10 )  )
( or ( <= ( + X10 1 ) X17 )  ( <= ( + X17 53 ) X10 )  ( <= ( + Y10 44 ) Y17 )  ( <= ( + Y17 36 ) Y10 )  )
( or ( <= ( + X11 16 ) X12 )  ( <= ( + X12 54 ) X11 )  ( <= ( + Y11 32 ) Y12 )  ( <= ( + Y12 1 ) Y11 )  )
( or ( <= ( + X11 16 ) X13 )  ( <= ( + X13 84 ) X11 )  ( <= ( + Y11 32 ) Y13 )  ( <= ( + Y13 30 ) Y11 )  )
( or ( <= ( + X11 16 ) X14 )  ( <= ( + X14 94 ) X11 )  ( <= ( + Y11 32 ) Y14 )  ( <= ( + Y14 13 ) Y11 )  )
( or ( <= ( + X11 16 ) X15 )  ( <= ( + X15 27 ) X11 )  ( <= ( + Y11 32 ) Y15 )  ( <= ( + Y15 96 ) Y11 )  )
( or ( <= ( + X11 16 ) X16 )  ( <= ( + X16 75 ) X11 )  ( <= ( + Y11 32 ) Y16 )  ( <= ( + Y16 5 ) Y11 )  )
( or ( <= ( + X11 16 ) X17 )  ( <= ( + X17 53 ) X11 )  ( <= ( + Y11 32 ) Y17 )  ( <= ( + Y17 36 ) Y11 )  )
( or ( <= ( + X12 54 ) X13 )  ( <= ( + X13 84 ) X12 )  ( <= ( + Y12 1 ) Y13 )  ( <= ( + Y13 30 ) Y12 )  )
( or ( <= ( + X12 54 ) X14 )  ( <= ( + X14 94 ) X12 )  ( <= ( + Y12 1 ) Y14 )  ( <= ( + Y14 13 ) Y12 )  )
( or ( <= ( + X12 54 ) X15 )  ( <= ( + X15 27 ) X12 )  ( <= ( + Y12 1 ) Y15 )  ( <= ( + Y15 96 ) Y12 )  )
( or ( <= ( + X12 54 ) X16 )  ( <= ( + X16 75 ) X12 )  ( <= ( + Y12 1 ) Y16 )  ( <= ( + Y16 5 ) Y12 )  )
( or ( <= ( + X12 54 ) X17 )  ( <= ( + X17 53 ) X12 )  ( <= ( + Y12 1 ) Y17 )  ( <= ( + Y17 36 ) Y12 )  )
( or ( <= ( + X13 84 ) X14 )  ( <= ( + X14 94 ) X13 )  ( <= ( + Y13 30 ) Y14 )  ( <= ( + Y14 13 ) Y13 )  )
( or ( <= ( + X13 84 ) X15 )  ( <= ( + X15 27 ) X13 )  ( <= ( + Y13 30 ) Y15 )  ( <= ( + Y15 96 ) Y13 )  )
( or ( <= ( + X13 84 ) X16 )  ( <= ( + X16 75 ) X13 )  ( <= ( + Y13 30 ) Y16 )  ( <= ( + Y16 5 ) Y13 )  )
( or ( <= ( + X13 84 ) X17 )  ( <= ( + X17 53 ) X13 )  ( <= ( + Y13 30 ) Y17 )  ( <= ( + Y17 36 ) Y13 )  )
( or ( <= ( + X14 94 ) X15 )  ( <= ( + X15 27 ) X14 )  ( <= ( + Y14 13 ) Y15 )  ( <= ( + Y15 96 ) Y14 )  )
( or ( <= ( + X14 94 ) X16 )  ( <= ( + X16 75 ) X14 )  ( <= ( + Y14 13 ) Y16 )  ( <= ( + Y16 5 ) Y14 )  )
( or ( <= ( + X14 94 ) X17 )  ( <= ( + X17 53 ) X14 )  ( <= ( + Y14 13 ) Y17 )  ( <= ( + Y17 36 ) Y14 )  )
( or ( <= ( + X15 27 ) X16 )  ( <= ( + X16 75 ) X15 )  ( <= ( + Y15 96 ) Y16 )  ( <= ( + Y16 5 ) Y15 )  )
( or ( <= ( + X15 27 ) X17 )  ( <= ( + X17 53 ) X15 )  ( <= ( + Y15 96 ) Y17 )  ( <= ( + Y17 36 ) Y15 )  )
( or ( <= ( + X16 75 ) X17 )  ( <= ( + X17 53 ) X16 )  ( <= ( + Y16 5 ) Y17 )  ( <= ( + Y17 36 ) Y16 )  )
( >= X0 0)
( <= ( + X0 87) Z)
( >= Y0 0)
( <= ( + Y0 61 ) 212)
( >= X1 0)
( <= ( + X1 82) Z)
( >= Y1 0)
( <= ( + Y1 35 ) 212)
( >= X2 0)
( <= ( + X2 43) Z)
( >= Y2 0)
( <= ( + Y2 14 ) 212)
( >= X3 0)
( <= ( + X3 23) Z)
( >= Y3 0)
( <= ( + Y3 99 ) 212)
( >= X4 0)
( <= ( + X4 71) Z)
( >= Y4 0)
( <= ( + Y4 77 ) 212)
( >= X5 0)
( <= ( + X5 29) Z)
( >= Y5 0)
( <= ( + Y5 14 ) 212)
( >= X6 0)
( <= ( + X6 20) Z)
( >= Y6 0)
( <= ( + Y6 4 ) 212)
( >= X7 0)
( <= ( + X7 77) Z)
( >= Y7 0)
( <= ( + Y7 1 ) 212)
( >= X8 0)
( <= ( + X8 44) Z)
( >= Y8 0)
( <= ( + Y8 78 ) 212)
( >= X9 0)
( <= ( + X9 15) Z)
( >= Y9 0)
( <= ( + Y9 12 ) 212)
( >= X10 0)
( <= ( + X10 1) Z)
( >= Y10 0)
( <= ( + Y10 44 ) 212)
( >= X11 0)
( <= ( + X11 16) Z)
( >= Y11 0)
( <= ( + Y11 32 ) 212)
( >= X12 0)
( <= ( + X12 54) Z)
( >= Y12 0)
( <= ( + Y12 1 ) 212)
( >= X13 0)
( <= ( + X13 84) Z)
( >= Y13 0)
( <= ( + Y13 30 ) 212)
( >= X14 0)
( <= ( + X14 94) Z)
( >= Y14 0)
( <= ( + Y14 13 ) 212)
( >= X15 0)
( <= ( + X15 27) Z)
( >= Y15 0)
( <= ( + Y15 96 ) 212)
( >= X16 0)
( <= ( + X16 75) Z)
( >= Y16 0)
( <= ( + Y16 5 ) 212)
( >= X17 0)
( <= ( + X17 53) Z)
( >= Y17 0)
( <= ( + Y17 36 ) 212)
) )
(minimize Z)
(check-sat)
